sat
(:max-memory        18.61
 :memory            17.62
 :num-allocs        124290027
 :rlimit-count      439932
 :sls-constraints   1494
 :sls-ddfw-flips    184284.00
 :sls-ddfw-reinits  6
 :sls-ddfw-restarts 32
 :sls-ddfw-shifts   121670.00
 :sls-euf-conflict  1494
 :time              0.20
 :total-time        0.20)
